20
3 1 36
4 3 28
7 1 24
7 2 16
7 3 28
8 0 2
8 1 33
8 2 8
8 5 37
9 2 19
9 4 29
9 8 3
10 1 7
10 4 8
10 5 25
10 7 6
11 9 14
11 10 32
12 1 16
12 3 14
12 8 15
12 9 2
13 3 13
13 4 9
13 6 39
13 8 11
13 11 35
14 5 27
14 6 16
14 7 12
14 8 8
14 12 16
15 6 24
15 11 38
15 12 24
16 0 39
16 3 26
16 14 29
16 15 4
17 0 13
17 3 40
17 5 5
17 6 39
18 0 35
18 3 31
18 6 35
18 12 21
19 0 11
19 1 5
19 5 10
19 6 38
19 7 28
19 8 12
19 9 38
19 11 15
19 12 8
19 13 9
19 15 4
19 16 40
19 17 37
